TIP.Original.Linear/tip2015_nat_alt_mul_same.smt2
(set-logic HORN)
(declare-datatypes ((Nat_460 0)) (((zero_118 ) (succ_115 (p_328 Nat_460)))))
(declare-fun diseqNat_460 (Nat_460 Nat_460) Bool)
(declare-fun p_329 (Nat_460 Nat_460) Bool)
(declare-fun iszero_115 (Nat_460) Bool)
(declare-fun issucc_115 (Nat_460) Bool)
(assert (forall ((x_50401 Nat_460))
	(p_329 x_50401 (succ_115 x_50401))))
(assert (iszero_115 zero_118))
(assert (forall ((x_50403 Nat_460))
	(issucc_115 (succ_115 x_50403))))
(assert (forall ((x_50404 Nat_460))
	(diseqNat_460 zero_118 (succ_115 x_50404))))
(assert (forall ((x_50405 Nat_460))
	(diseqNat_460 (succ_115 x_50405) zero_118)))
(assert (forall ((x_50406 Nat_460) (x_50407 Nat_460))
	(=> (diseqNat_460 x_50406 x_50407)
	    (diseqNat_460 (succ_115 x_50406) (succ_115 x_50407)))))
(declare-fun plus_115 (Nat_460 Nat_460 Nat_460) Bool)
(assert (forall ((x_50356 Nat_460) (z_1634 Nat_460) (y_1829 Nat_460))
	(=> (plus_115 x_50356 z_1634 y_1829)
	    (plus_115 (succ_115 x_50356) (succ_115 z_1634) y_1829))))
(assert (forall ((x_50357 Nat_460))
	(plus_115 x_50357 zero_118 x_50357)))
(declare-fun times_27 (Nat_460 Nat_460 Nat_460) Bool)
(assert (forall ((x_50358 Nat_460) (x_50359 Nat_460) (z_1635 Nat_460) (y_1830 Nat_460))
	(=>	(and (times_27 x_50359 z_1635 y_1830)
			(plus_115 x_50358 y_1830 x_50359))
		(times_27 x_50358 (succ_115 z_1635) y_1830))))
(assert (forall ((y_1830 Nat_460))
	(times_27 zero_118 zero_118 y_1830)))
(declare-fun altmul_2 (Nat_460 Nat_460 Nat_460) Bool)
(assert (forall ((x_50362 Nat_460) (x_50363 Nat_460) (x_50364 Nat_460) (x_50365 Nat_460) (x_50341 Nat_460) (z_1636 Nat_460))
	(=>	(and (altmul_2 x_50363 z_1636 x_50341)
			(plus_115 x_50364 (succ_115 zero_118) x_50363)
			(plus_115 x_50365 x_50364 z_1636)
			(plus_115 x_50362 x_50365 x_50341))
		(altmul_2 x_50362 (succ_115 z_1636) (succ_115 x_50341)))))
(assert (forall ((z_1636 Nat_460))
	(altmul_2 zero_118 (succ_115 z_1636) zero_118)))
(assert (forall ((y_1831 Nat_460))
	(altmul_2 zero_118 zero_118 y_1831)))
(assert (forall ((x_50369 Nat_460) (x_50370 Nat_460) (x_50342 Nat_460) (y_1832 Nat_460))
	(=>	(and true
			(diseqNat_460 x_50369 x_50370)
			(altmul_2 x_50369 x_50342 y_1832)
			(times_27 x_50370 x_50342 y_1832))
		false)))
(assert (forall ((x_50371 Nat_460) (x_50372 Nat_460) (x_50373 Nat_460) (x_50374 Nat_460) (x_50343 Nat_460) (y_1833 Nat_460) (z_1637 Nat_460))
	(=>	(and true
			(diseqNat_460 x_50372 x_50374)
			(times_27 x_50371 y_1833 z_1637)
			(times_27 x_50372 x_50343 x_50371)
			(times_27 x_50373 x_50343 y_1833)
			(times_27 x_50374 x_50373 z_1637))
		false)))
(assert (forall ((x_50375 Nat_460) (x_50376 Nat_460) (x_50377 Nat_460) (x_50378 Nat_460) (x_50344 Nat_460) (y_1834 Nat_460) (z_1638 Nat_460))
	(=>	(and true
			(diseqNat_460 x_50376 x_50378)
			(plus_115 x_50375 y_1834 z_1638)
			(plus_115 x_50376 x_50344 x_50375)
			(plus_115 x_50377 x_50344 y_1834)
			(plus_115 x_50378 x_50377 z_1638))
		false)))
(assert (forall ((x_50379 Nat_460) (x_50380 Nat_460) (x_50345 Nat_460) (y_1835 Nat_460))
	(=>	(and true
			(diseqNat_460 x_50379 x_50380)
			(times_27 x_50379 x_50345 y_1835)
			(times_27 x_50380 y_1835 x_50345))
		false)))
(assert (forall ((x_50381 Nat_460) (x_50382 Nat_460) (x_50346 Nat_460) (y_1836 Nat_460))
	(=>	(and true
			(diseqNat_460 x_50381 x_50382)
			(plus_115 x_50381 x_50346 y_1836)
			(plus_115 x_50382 y_1836 x_50346))
		false)))
(assert (forall ((x_50383 Nat_460) (x_50384 Nat_460) (x_50385 Nat_460) (x_50386 Nat_460) (x_50387 Nat_460) (x_50347 Nat_460) (y_1837 Nat_460) (z_1639 Nat_460))
	(=>	(and true
			(diseqNat_460 x_50384 x_50387)
			(plus_115 x_50383 y_1837 z_1639)
			(times_27 x_50384 x_50347 x_50383)
			(times_27 x_50385 x_50347 y_1837)
			(times_27 x_50386 x_50347 z_1639)
			(plus_115 x_50387 x_50385 x_50386))
		false)))
(assert (forall ((x_50388 Nat_460) (x_50389 Nat_460) (x_50390 Nat_460) (x_50391 Nat_460) (x_50392 Nat_460) (x_50348 Nat_460) (y_1838 Nat_460) (z_1640 Nat_460))
	(=>	(and true
			(diseqNat_460 x_50389 x_50392)
			(plus_115 x_50388 x_50348 y_1838)
			(times_27 x_50389 x_50388 z_1640)
			(times_27 x_50390 x_50348 z_1640)
			(times_27 x_50391 y_1838 z_1640)
			(plus_115 x_50392 x_50390 x_50391))
		false)))
(assert (forall ((x_50393 Nat_460) (x_50349 Nat_460))
	(=>	(and true
			(diseqNat_460 x_50393 x_50349)
			(times_27 x_50393 x_50349 (succ_115 zero_118)))
		false)))
(assert (forall ((x_50394 Nat_460) (x_50350 Nat_460))
	(=>	(and true
			(diseqNat_460 x_50394 x_50350)
			(times_27 x_50394 (succ_115 zero_118) x_50350))
		false)))
(assert (forall ((x_50395 Nat_460) (x_50351 Nat_460))
	(=>	(and true
			(diseqNat_460 x_50395 x_50351)
			(plus_115 x_50395 x_50351 zero_118))
		false)))
(assert (forall ((x_50396 Nat_460) (x_50352 Nat_460))
	(=>	(and true
			(diseqNat_460 x_50396 x_50352)
			(plus_115 x_50396 zero_118 x_50352))
		false)))
(assert (forall ((x_50397 Nat_460) (x_50353 Nat_460))
	(=>	(and true
			(diseqNat_460 x_50397 zero_118)
			(times_27 x_50397 x_50353 zero_118))
		false)))
(assert (forall ((x_50398 Nat_460) (x_50354 Nat_460))
	(=>	(and true
			(diseqNat_460 x_50398 zero_118)
			(times_27 x_50398 zero_118 x_50354))
		false)))
(check-sat)
